
Gurobi 9.1.2 (win64) logging started Tue Dec  7 12:35:54 2021

Gurobi Optimizer version 9.1.2 build v9.1.2rc0 (win64)
Thread count: 8 physical cores, 8 logical processors, using up to 8 threads
Optimize a model with 1 rows, 23 columns and 22 nonzeros
Model fingerprint: 0x51a06441
Variable types: 1 continuous, 22 integer (22 binary)
Coefficient statistics:
  Matrix range     [1e+00, 1e+01]
  Objective range  [1e+00, 1e+00]
  Bounds range     [5e+00, 5e+00]
  RHS range        [1e+01, 1e+01]
Presolve time: 0.00s
Presolved: 1 rows, 23 columns, 22 nonzeros
Variable types: 1 continuous, 22 integer (22 binary)

Root simplex log...

Iteration    Objective       Primal Inf.    Dual Inf.      Time
       0   -5.2163022e+00   9.424672e-02   0.000000e+00     14s
       3   -5.2163022e+00   0.000000e+00   0.000000e+00     14s

Root relaxation: objective -5.216302e+00, 3 iterations, 0.00 seconds

    Nodes    |    Current Node    |     Objective Bounds      |     Work
 Expl Unexpl |  Obj  Depth IntInf | Incumbent    BestBd   Gap | It/Node Time

*    0     0               0      -5.2163022   -5.21630  0.00%     -   14s

Cutting planes:
  Lazy constraints: 3

Explored 0 nodes (8 simplex iterations) in 14.45 seconds
Thread count was 8 (of 8 available processors)

Solution count 1: -5.2163 
No other solutions better than -5.2163

Optimal solution found (tolerance 1.00e-04)
Best objective -5.216302229587e+00, best bound -5.216302229587e+00, gap 0.0000%

User-callback calls 77, time in user-callback 18.25 sec
